# Solution for model problem_
# Objective value = 5.0720641830043467e+04
x(0_0) 0
x(0_1) 0
x(0_2) 0
x(0_3) 0
x(0_4) 0
x(0_5) 0
x(0_6) 0
x(0_7) 0
x(0_8) 0
x(0_9) 0
x(0_10) 0
x(0_11) 1
x(0_12) 0
x(0_13) 0
x(0_14) 0
x(0_15) 0
x(0_16) 0
x(0_17) 0
x(0_18) 0
x(1_19) 1
x(1_20) 0
x(1_21) 0
x(1_22) 0
x(1_23) 0
x(1_24) 0
x(1_25) 0
x(1_26) 0
x(1_27) 0
x(1_28) 0
x(1_29) 0
x(1_30) 0
x(1_31) 0
x(1_32) 0
x(1_33) 0
x(1_34) 0
x(1_35) 0
x(2_36) 0
x(2_37) 0
x(2_38) 0
x(2_39) 0
x(2_40) 0
x(2_41) 0
x(2_42) 0
x(2_43) 0
x(2_44) 0
x(2_45) 0
x(2_46) 1
x(2_47) 0
x(2_48) 0
x(2_49) 0
x(2_50) 0
x(2_51) 0
x(2_52) 0
x(3_53) 0
x(3_54) 0
x(3_55) 0
x(3_56) 0
x(3_57) 1
x(3_58) 0
x(3_59) 0
x(3_60) 0
x(3_61) 0
x(3_62) 0
x(3_63) 0
x(3_64) 0
x(3_65) 0
x(4_66) 0
x(4_67) 0
x(4_68) 0
x(4_69) 0
x(4_70) 0
x(4_71) 1
x(4_72) 0
x(4_73) 0
x(4_74) 0
x(4_75) 0
x(4_76) 0
x(4_77) 0
x(4_78) 0
x(5_79) 0
x(5_80) 0
x(5_81) 0
x(5_82) 0
x(5_83) 0
x(5_84) 0
x(5_85) 0
x(5_86) 1
x(5_87) 0
x(5_88) 0
x(5_89) 0
x(6_90) 0
x(6_91) 0
x(6_92) 0
x(6_93) 1
x(6_94) 0
x(6_95) 0
x(6_96) 0
x(6_97) 0
x(6_98) 0
x(6_99) 0
x(6_100) 0
x(6_101) 0
x(6_102) 0
x(6_103) 0
x(7_104) 0
x(7_105) 0
x(7_106) 0
x(7_107) 0
x(7_108) 0
x(7_109) 0
x(7_110) 0
x(7_111) 1
x(7_112) 0
x(7_113) 0
x(7_114) 0
x(7_115) 0
x(7_116) 0
x(7_117) 0
x(7_118) 0
x(7_119) 0
x(8_120) 0
x(8_121) 0
x(8_122) 0
x(8_123) 0
x(8_124) 0
x(8_125) 0
x(8_126) 0
x(8_127) 0
x(8_128) 0
x(8_129) 0
x(8_130) 1
x(8_131) 0
x(9_132) 0
x(9_133) 0
x(9_134) 1
x(9_135) 0
x(9_136) 0
x(9_137) 0
x(9_138) 0
x(9_139) 0
x(9_140) 0
x(9_141) 0
x(9_142) 0
x(9_143) 0
x(9_144) 0
x(9_145) 0
x(9_146) 0
x(10_147) 1
x(10_148) 0
x(10_149) 0
x(10_150) 0
x(10_151) 0
x(10_152) 0
x(10_153) 0
x(10_154) 0
x(10_155) 0
x(10_156) 0
x(10_157) 0
x(10_158) 0
x(10_159) 0
x(10_160) 0
x(10_161) 0
x(10_162) 0
x(10_163) 0
x(11_164) 0
x(11_165) 0
x(11_166) 0
x(11_167) 0
x(11_168) 0
x(11_169) 0
x(11_170) 1
x(11_171) 0
x(11_172) 0
x(11_173) 0
x(11_174) 0
x(11_175) 0
x(12_176) 0
x(12_177) 0
x(12_178) 0
x(12_179) 1
x(12_180) 0
x(12_181) 0
x(12_182) 0
x(12_183) 0
x(12_184) 0
x(12_185) 0
x(12_186) 0
x(13_187) 0
x(13_188) 0
x(13_189) 0
x(13_190) 0
x(13_191) 0
x(13_192) 0
x(13_193) 1
x(13_194) 0
x(13_195) 0
x(13_196) 0
x(14_197) 0
x(14_198) 0
x(14_199) 0
x(14_200) 0
x(14_201) 0
x(14_202) 0
x(14_203) 0
x(14_204) 0
x(14_205) 0
x(14_206) 1
x(14_207) 0
x(14_208) 0
x(14_209) 0
x(15_210) 0
x(15_211) 0
x(15_212) 0
x(15_213) 1
x(15_214) 0
x(15_215) 0
x(15_216) 0
x(15_217) 0
x(15_218) 0
x(15_219) 0
x(15_220) 0
x(15_221) 0
x(15_222) 0
x(16_223) 0
x(16_224) 0
x(16_225) 0
x(16_226) 0
x(16_227) 0
x(16_228) 0
x(16_229) 0
x(16_230) 0
x(16_231) 1
x(16_232) 0
x(16_233) 0
x(17_234) 0
x(17_235) 0
x(17_236) 0
x(17_237) 0
x(17_238) 0
x(17_239) 0
x(17_240) 0
x(17_241) 0
x(17_242) 0
x(17_243) 0
x(17_244) 0
x(17_245) 0
x(17_246) 0
x(17_247) 1
x(17_248) 0
x(17_249) 0
x(17_250) 0
x_1_0 0
s_1_0 7.4029829015489668e-01
z_1_0 1
x_1_1 0
s_1_1 5.0277521170210093e-01
z_1_1 1
x_1_2 0
s_1_2 6.2793922703713179e-01
z_1_2 1
x_1_3 0
s_1_3 0.49090255133342
z_1_3 1
x_1_4 86.3714063167572
s_1_4 0
z_1_4 0
x_1_5 86.7280056476593
s_1_5 0
z_1_5 0
x_1_6 8.6493129253387451e+01
s_1_6 0
z_1_6 0
x_1_7 0
s_1_7 2.9367722664028406e-01
z_1_7 1
x_1_8 0
s_1_8 9.8161716759204865e-01
z_1_8 1
x_1_9 87.2905912399292
s_1_9 0
z_1_9 0
x_1_10 0
s_1_10 7.6635604957118630e-01
z_1_10 1
x_1_11 8.7310745239257812e+01
s_1_11 0
z_1_11 0
x_1_12 0
s_1_12 8.1507049407809973e-01
z_1_12 1
x_1_13 8.6919256448745728e+01
s_1_13 0
z_1_13 0
x_1_14 0
s_1_14 9.4523252919316292e-01
z_1_14 1
x_1_15 8.6907639741897583e+01
s_1_15 0
z_1_15 0
x_1_16 8.7217178344726562e+01
s_1_16 0
z_1_16 0
x_1_17 8.6177540540695190e+01
s_1_17 0
z_1_17 0
x_1_18 84.8792769908905
s_1_18 0
z_1_18 0
x_1_19 8.6954147100448608e+01
s_1_19 0
z_1_19 0
x_1_20 0
s_1_20 0.460130553226918
z_1_20 1
x_1_21 0
s_1_21 8.9364156778901815e-01
z_1_21 1
x_1_22 8.6425958395004272e+01
s_1_22 0
z_1_22 0
x_1_23 8.5863644123077393e+01
s_1_23 0
z_1_23 0
x_1_24 86.2780830860138
s_1_24 0
z_1_24 0
x_1_25 8.6269944906234741e+01
s_1_25 0
z_1_25 0
x_1_26 8.5698069334030151e+01
s_1_26 0
z_1_26 0
x_1_27 8.6882186651229858e+01
s_1_27 0
z_1_27 0
x_1_28 0
s_1_28 8.6319395597092807e-01
z_1_28 1
x_1_29 0
s_1_29 5.3437069547362626e-01
z_1_29 1
x_1_30 86.7003345489502
s_1_30 0
z_1_30 0
x_1_31 8.6635535478591919e+01
s_1_31 0
z_1_31 0
x_1_32 87.5886778831482
s_1_32 0
z_1_32 0
x_1_33 8.6713948011398315e+01
s_1_33 0
z_1_33 0
x_1_34 8.7249864578247070e+01
s_1_34 0
z_1_34 0
x_1_35 0
s_1_35 3.6813849024474621e-01
z_1_35 1
x_1_36 8.4654194355010986e+01
s_1_36 0
z_1_36 0
x_1_37 0
s_1_37 6.5261660795658827e-01
z_1_37 1
x_1_38 86.8006660938263
s_1_38 0
z_1_38 0
x_1_39 0
s_1_39 0.535922585055232
z_1_39 1
x_1_40 8.6043026208877563e+01
s_1_40 0
z_1_40 0
x_1_41 0
s_1_41 1.1864367499947548e+00
z_1_41 1
x_1_42 8.6461966037750244e+01
s_1_42 0
z_1_42 0
x_1_43 8.6379472017288208e+01
s_1_43 0
z_1_43 0
x_1_44 8.6934520483016968e+01
s_1_44 0
z_1_44 0
x_1_45 0
s_1_45 4.0807168895844370e-01
z_1_45 1
x_1_46 0
s_1_46 5.5594387903693132e-01
z_1_46 1
x_1_47 0
s_1_47 5.7497449521906674e-01
z_1_47 1
x_1_48 0
s_1_48 4.8699893685989082e-01
z_1_48 1
x_1_49 8.6633942842483521e+01
s_1_49 0
z_1_49 0
x_1_50 87.1225700378418
s_1_50 0
z_1_50 0
x_1_51 8.6011997938156128e+01
s_1_51 0
z_1_51 0
x_1_52 8.6843264341354370e+01
s_1_52 0
z_1_52 0
x_1_53 8.6740612506866455e+01
s_1_53 0
z_1_53 0
x_1_54 8.7011020660400391e+01
s_1_54 0
z_1_54 0
x_1_55 85.6243953704834
s_1_55 0
z_1_55 0
x_1_56 0
s_1_56 8.8583883433602750e-01
z_1_56 1
x_1_57 0
s_1_57 0.858964981045574
z_1_57 1
x_1_58 8.6435800790786743e+01
s_1_58 0
z_1_58 0
x_1_59 8.6282819986343384e+01
s_1_59 0
z_1_59 0
x_1_60 8.6563928127288818e+01
s_1_60 0
z_1_60 0
x_1_61 0
s_1_61 7.6612849847879261e-01
z_1_61 1
x_1_62 0
s_1_62 6.0421680985018611e-01
z_1_62 1
x_1_63 0
s_1_63 8.4754481725394726e-01
z_1_63 1
x_1_64 8.6778844356536865e+01
s_1_64 0
z_1_64 0
x_1_65 8.4937258720397949e+01
s_1_65 0
z_1_65 0
x_1_66 0
s_1_66 5.6804474676027894e-01
z_1_66 1
x_1_67 0
s_1_67 2.4639032036066055e-01
z_1_67 1
x_1_68 0
s_1_68 5.2381542418152094e-01
z_1_68 1
x_1_69 0
s_1_69 0.044560164649738
z_1_69 1
x_1_70 8.7118176460266113e+01
s_1_70 0
z_1_70 0
x_1_71 8.6260726690292358e+01
s_1_71 0
z_1_71 0
x_1_72 8.5784638643264771e+01
s_1_72 0
z_1_72 0
x_1_73 8.7208427190780640e+01
s_1_73 0
z_1_73 0
x_1_74 0
s_1_74 7.9706143261864781e-01
z_1_74 1
x_1_75 0
s_1_75 7.6741162221878767e-01
z_1_75 1
x_1_76 0
s_1_76 7.6179030188359320e-01
z_1_76 1
x_1_77 0
s_1_77 3.9254808553960174e-01
z_1_77 1
x_1_78 0
s_1_78 7.5360468775033951e-01
z_1_78 1
x_1_79 8.6159466505050659e+01
s_1_79 0
z_1_79 0
x_1_80 8.5425822496414185e+01
s_1_80 0
z_1_80 0
x_1_81 8.7479318618774414e+01
s_1_81 0
z_1_81 0
x_1_82 0
s_1_82 9.3069857498630881e-01
z_1_82 1
x_1_83 0
s_1_83 6.7772889602929354e-01
z_1_83 1
x_1_84 8.7343296289443970e+01
s_1_84 0
z_1_84 0
x_1_85 0
s_1_85 7.1540626359637827e-01
z_1_85 1
x_1_86 0
s_1_86 7.6824850076809525e-01
z_1_86 1
x_1_87 8.5999205589294434e+01
s_1_87 0
z_1_87 0
x_1_88 8.7062278032302856e+01
s_1_88 0
z_1_88 0
x_1_89 8.7449333190917969e+01
s_1_89 0
z_1_89 0
x_1_90 8.6420366525650024e+01
s_1_90 0
z_1_90 0
x_1_91 8.6470806598663330e+01
s_1_91 0
z_1_91 0
x_1_92 0
s_1_92 4.4569892418803647e-01
z_1_92 1
x_1_93 87.0058319568634
s_1_93 0
z_1_93 0
x_1_94 8.6056162357330322e+01
s_1_94 0
z_1_94 0
x_1_95 87.3175368309021
s_1_95 0
z_1_95 0
x_1_96 8.6425976991653442e+01
s_1_96 0
z_1_96 0
x_1_97 8.6549136400222778e+01
s_1_97 0
z_1_97 0
x_1_98 8.4625188827514648e+01
s_1_98 0
z_1_98 0
x_1_99 85.7843668460846
s_1_99 0
z_1_99 0
x_1_100 8.5321948051452637e+01
s_1_100 0
z_1_100 0
x_1_101 0
s_1_101 7.7278437663335353e-01
z_1_101 1
x_1_102 86.3891704082489
s_1_102 0
z_1_102 0
x_1_103 8.6798629760742188e+01
s_1_103 0
z_1_103 0
x_1_104 8.6460047483444214e+01
s_1_104 0
z_1_104 0
x_1_105 8.6531771659851074e+01
s_1_105 0
z_1_105 0
x_1_106 0
s_1_106 9.9133424041792750e-01
z_1_106 1
x_1_107 8.5065094709396362e+01
s_1_107 0
z_1_107 0
x_1_108 86.5299699306488
s_1_108 0
z_1_108 0
x_1_109 8.6787979364395142e+01
s_1_109 0
z_1_109 0
x_1_110 8.6703068733215332e+01
s_1_110 0
z_1_110 0
x_1_111 0
s_1_111 3.4139466891065240e-01
z_1_111 1
x_1_112 0
s_1_112 0.575178039027378
z_1_112 1
x_1_113 8.6684421062469482e+01
s_1_113 0
z_1_113 0
x_1_114 0
s_1_114 5.3858712327200919e-01
z_1_114 1
x_1_115 8.6328461408615112e+01
s_1_115 0
z_1_115 0
x_1_116 8.6590578079223633e+01
s_1_116 0
z_1_116 0
x_1_117 8.7040125131607056e+01
s_1_117 0
z_1_117 0
x_1_118 0
s_1_118 9.0251132170669734e-01
z_1_118 1
x_1_119 86.3955807685852
s_1_119 0
z_1_119 0
x_1_120 0
s_1_120 4.3685566936619580e-01
z_1_120 1
x_1_121 0
s_1_121 6.2084319721907377e-01
z_1_121 1
x_1_122 0
s_1_122 0.535515068564564
z_1_122 1
x_1_123 0
s_1_123 6.5622559003531933e-01
z_1_123 1
x_1_124 0
s_1_124 7.0208721992094070e-01
z_1_124 1
x_1_125 8.6312734842300415e+01
s_1_125 0
z_1_125 0
x_1_126 0
s_1_126 6.7700417817104608e-01
z_1_126 1
x_1_127 0
s_1_127 7.1218133321963251e-01
z_1_127 1
x_1_128 0
s_1_128 5.9745290200226009e-01
z_1_128 1
x_1_129 8.6473636627197266e+01
s_1_129 0
z_1_129 0
x_1_130 8.7400308847427368e+01
s_1_130 0
z_1_130 0
x_1_131 86.7705488204956
s_1_131 0
z_1_131 0
x_1_132 86.6912043094635
s_1_132 0
z_1_132 0
x_1_133 8.6566850662231445e+01
s_1_133 0
z_1_133 0
x_1_134 84.9929690361023
s_1_134 0
z_1_134 0
x_1_135 8.6831667184829712e+01
s_1_135 0
z_1_135 0
x_1_136 0
s_1_136 7.0256988378241658e-01
z_1_136 1
x_1_137 0
s_1_137 3.6985343392007053e-01
z_1_137 1
x_1_138 0
s_1_138 9.0158518927637488e-01
z_1_138 1
x_1_139 8.6669889688491821e+01
s_1_139 0
z_1_139 0
x_1_140 8.6478842496871948e+01
s_1_140 0
z_1_140 0
x_1_141 8.6039585351943970e+01
s_1_141 0
z_1_141 0
x_1_142 8.6383059740066528e+01
s_1_142 0
z_1_142 0
x_1_143 86.3842442035675
s_1_143 0
z_1_143 0
x_1_144 8.6523991346359253e+01
s_1_144 0
z_1_144 0
x_1_145 8.5783477544784546e+01
s_1_145 0
z_1_145 0
x_1_146 0
s_1_146 4.8544213967397809e-01
z_1_146 1
x_1_147 86.904940366745
s_1_147 0
z_1_147 0
x_1_148 8.7527515888214111e+01
s_1_148 0
z_1_148 0
x_1_149 0
s_1_149 5.7374906307086349e-01
z_1_149 1
x_1_150 0
s_1_150 0.891711707576178
z_1_150 1
x_1_151 8.6614574670791626e+01
s_1_151 0
z_1_151 0
x_1_152 8.6461518049240112e+01
s_1_152 0
z_1_152 0
x_1_153 0
s_1_153 1.0388837307109497e+00
z_1_153 1
x_1_154 0
s_1_154 6.2040473544038832e-01
z_1_154 1
x_1_155 8.6544323444366455e+01
s_1_155 0
z_1_155 0
x_1_156 8.6540414810180664e+01
s_1_156 0
z_1_156 0
x_1_157 0
s_1_157 7.8102649073116481e-01
z_1_157 1
x_1_158 8.7506718635559082e+01
s_1_158 0
z_1_158 0
x_1_159 0
s_1_159 6.6042773399385624e-01
z_1_159 1
x_2_0 5.0245201830043465e+04
